
<<< setup

Tried aggregator 1 time.
LP Presolve eliminated 113 rows and 81 columns.
Reduced LP has 2 rows, 18 columns, and 18 nonzeros.
Presolve time = 0.00 sec. (0.04 ticks)

Iteration log . . .
Iteration:     1   Dual objective     =          1554.476987
main returns 0

<<< main


<<< done

